c colouring generated by benchmark framework
p edge 500 58862
v 1 110
v 2 1
v 3 72
v 4 44
v 5 127
v 6 55
v 7 82
v 8 78
v 9 4
v 10 48
v 11 86
v 12 47
v 13 53
v 14 121
v 15 104
v 16 5
v 17 3
v 18 84
v 19 83
v 20 8
v 21 27
v 22 2
v 23 92
v 24 41
v 25 89
v 26 38
v 27 5
v 28 59
v 29 59
v 30 131
v 31 4
v 32 35
v 33 5
v 34 16
v 35 51
v 36 76
v 37 71
v 38 25
v 39 51
v 40 19
v 41 34
v 42 4
v 43 83
v 44 108
v 45 112
v 46 53
v 47 5
v 48 24
v 49 21
v 50 21
v 51 35
v 52 43
v 53 33
v 54 0
v 55 56
v 56 104
v 57 33
v 58 127
v 59 83
v 60 74
v 61 55
v 62 49
v 63 12
v 64 36
v 65 73
v 66 98
v 67 123
v 68 120
v 69 6
v 70 22
v 71 49
v 72 76
v 73 26
v 74 56
v 75 40
v 76 8
v 77 50
v 78 27
v 79 32
v 80 10
v 81 94
v 82 82
v 83 50
v 84 27
v 85 62
v 86 44
v 87 2
v 88 36
v 89 17
v 90 36
v 91 72
v 92 82
v 93 66
v 94 81
v 95 34
v 96 26
v 97 56
v 98 18
v 99 69
v 100 6
v 101 52
v 102 32
v 103 78
v 104 6
v 105 12
v 106 0
v 107 109
v 108 1
v 109 86
v 110 65
v 111 95
v 112 85
v 113 16
v 114 113
v 115 131
v 116 97
v 117 113
v 118 31
v 119 54
v 120 38
v 121 1
v 122 19
v 123 29
v 124 95
v 125 45
v 126 34
v 127 44
v 128 94
v 129 23
v 130 31
v 131 44
v 132 89
v 133 79
v 134 99
v 135 17
v 136 39
v 137 17
v 138 127
v 139 57
v 140 28
v 141 34
v 142 41
v 143 37
v 144 70
v 145 70
v 146 132
v 147 37
v 148 125
v 149 85
v 150 79
v 151 84
v 152 27
v 153 37
v 154 96
v 155 78
v 156 81
v 157 91
v 158 108
v 159 103
v 160 18
v 161 28
v 162 39
v 163 79
v 164 11
v 165 128
v 166 6
v 167 15
v 168 87
v 169 69
v 170 19
v 171 110
v 172 100
v 173 40
v 174 96
v 175 29
v 176 90
v 177 130
v 178 121
v 179 128
v 180 77
v 181 98
v 182 43
v 183 10
v 184 23
v 185 93
v 186 124
v 187 132
v 188 60
v 189 14
v 190 111
v 191 95
v 192 66
v 193 15
v 194 91
v 195 117
v 196 88
v 197 19
v 198 25
v 199 68
v 200 12
v 201 42
v 202 77
v 203 15
v 204 1
v 205 50
v 206 5
v 207 40
v 208 114
v 209 30
v 210 133
v 211 62
v 212 53
v 213 84
v 214 115
v 215 15
v 216 39
v 217 61
v 218 91
v 219 74
v 220 129
v 221 118
v 222 16
v 223 9
v 224 109
v 225 19
v 226 0
v 227 25
v 228 92
v 229 106
v 230 46
v 231 30
v 232 114
v 233 36
v 234 74
v 235 22
v 236 26
v 237 46
v 238 22
v 239 7
v 240 43
v 241 3
v 242 14
v 243 111
v 244 20
v 245 42
v 246 130
v 247 1
v 248 24
v 249 93
v 250 71
v 251 11
v 252 35
v 253 25
v 254 32
v 255 97
v 256 85
v 257 10
v 258 43
v 259 29
v 260 98
v 261 16
v 262 20
v 263 20
v 264 43
v 265 94
v 266 38
v 267 104
v 268 73
v 269 99
v 270 105
v 271 45
v 272 44
v 273 8
v 274 22
v 275 103
v 276 57
v 277 58
v 278 105
v 279 18
v 280 13
v 281 118
v 282 97
v 283 6
v 284 109
v 285 59
v 286 100
v 287 57
v 288 52
v 289 63
v 290 61
v 291 7
v 292 86
v 293 67
v 294 61
v 295 66
v 296 3
v 297 54
v 298 132
v 299 90
v 300 4
v 301 120
v 302 112
v 303 114
v 304 31
v 305 113
v 306 88
v 307 123
v 308 30
v 309 128
v 310 2
v 311 82
v 312 122
v 313 59
v 314 58
v 315 115
v 316 17
v 317 2
v 318 86
v 319 111
v 320 107
v 321 48
v 322 16
v 323 9
v 324 122
v 325 96
v 326 11
v 327 79
v 328 101
v 329 9
v 330 67
v 331 120
v 332 118
v 333 76
v 334 125
v 335 41
v 336 68
v 337 64
v 338 58
v 339 0
v 340 22
v 341 81
v 342 75
v 343 64
v 344 67
v 345 100
v 346 7
v 347 97
v 348 60
v 349 125
v 350 67
v 351 95
v 352 102
v 353 116
v 354 102
v 355 35
v 356 107
v 357 99
v 358 68
v 359 17
v 360 99
v 361 76
v 362 47
v 363 5
v 364 93
v 365 89
v 366 32
v 367 46
v 368 42
v 369 14
v 370 39
v 371 64
v 372 112
v 373 48
v 374 12
v 375 10
v 376 120
v 377 131
v 378 24
v 379 7
v 380 106
v 381 124
v 382 45
v 383 122
v 384 116
v 385 63
v 386 47
v 387 106
v 388 126
v 389 55
v 390 83
v 391 133
v 392 92
v 393 116
v 394 119
v 395 0
v 396 36
v 397 119
v 398 55
v 399 48
v 400 58
v 401 57
v 402 25
v 403 117
v 404 9
v 405 109
v 406 56
v 407 3
v 408 23
v 409 4
v 410 8
v 411 71
v 412 12
v 413 63
v 414 107
v 415 85
v 416 41
v 417 88
v 418 11
v 419 129
v 420 119
v 421 7
v 422 33
v 423 14
v 424 28
v 425 20
v 426 29
v 427 42
v 428 121
v 429 21
v 430 87
v 431 101
v 432 24
v 433 72
v 434 130
v 435 18
v 436 49
v 437 3
v 438 73
v 439 32
v 440 80
v 441 14
v 442 9
v 443 50
v 444 77
v 445 51
v 446 52
v 447 27
v 448 75
v 449 90
v 450 91
v 451 123
v 452 105
v 453 70
v 454 21
v 455 105
v 456 72
v 457 62
v 458 60
v 459 92
v 460 94
v 461 47
v 462 16
v 463 23
v 464 11
v 465 101
v 466 63
v 467 6
v 468 15
v 469 117
v 470 92
v 471 37
v 472 133
v 473 26
v 474 13
v 475 54
v 476 8
v 477 69
v 478 13
v 479 75
v 480 49
v 481 126
v 482 0
v 483 118
v 484 132
v 485 33
v 486 108
v 487 87
v 488 51
v 489 65
v 490 80
v 491 80
v 492 65
v 493 52
v 494 31
v 495 24
v 496 2
v 497 75
v 498 103
v 499 28
v 500 119
